[2026-03-24T14:36:04.635Z] Pipeline "set_vm-3-t1_vm-3-t1_s017_g003" → 2026_03_24_14_36_04_set_vm-3-t1_vm-3-t1_s017_g003_max.sol
Set parameter Username
Set parameter LicenseID to value 2796068
Set parameter LogFile to value "gurobi.log"
Using license file /opt/gurobi/gurobi.lic
Academic license - for non-commercial use only - expires 2027-03-23

Gurobi Optimizer version 13.0.1 build v13.0.1rc0 (linux64 - "Ubuntu 24.04.4 LTS")
Copyright (c) 2026, Gurobi Optimization, LLC

Warning: Duplicate section found (read 'binary') - Is a variable name equal to an LP file format keyword?
Warning: Duplicate section found (read 'binary') - Is a variable name equal to an LP file format keyword?
Warning: Duplicate section found (read 'binary') - Is a variable name equal to an LP file format keyword?
Warning: Duplicate section found (read 'binary') - Is a variable name equal to an LP file format keyword?
Warning: Duplicate section found (read 'binary') - Is a variable name equal to an LP file format keyword?
Warning: Duplicate section found (read 'binary') - Is a variable name equal to an LP file format keyword?
Warning: Duplicate section found (read 'binary') - Is a variable name equal to an LP file format keyword?
Warning: Duplicate section found (read 'binary') - Is a variable name equal to an LP file format keyword?
Warning: Duplicate section found (read 'binary') - Is a variable name equal to an LP file format keyword?
Warning: Duplicate section found (read 'binary') - Is a variable name equal to an LP file format keyword?
Warning: Further warnings of this type will be omitted.
Read LP format model from file /root/bgw/data/uploads/2026_03_24_14_36_04_set_vm-3-t1_vm-3-t1_s017_g003_max.lp
Reading time = 0.01 seconds
: 6557 rows, 509 columns, 19758 nonzeros

Using Gurobi shared library /opt/gurobi1301/linux64/lib/libgurobi.so.13.0.1

CPU model: AMD EPYC-Genoa Processor, instruction set [SSE2|AVX|AVX2|AVX512]
Thread count: 16 physical cores, 16 logical processors, using up to 16 threads

Optimize a model with 6557 rows, 509 columns and 19758 nonzeros (Max)
Model fingerprint: 0x4675641e
Model has 36 linear objective coefficients
Variable types: 63 continuous, 446 integer (446 binary)
Coefficient statistics:
  Matrix range     [1e+00, 3e+01]
  Objective range  [1e+00, 1e+00]
  Bounds range     [1e+00, 1e+00]
  RHS range        [1e+00, 3e+01]

Found heuristic solution: objective 36.0000000
Presolve removed 654 rows and 127 columns
Presolve time: 0.02s
Presolved: 5903 rows, 382 columns, 17925 nonzeros
Variable types: 0 continuous, 382 integer (373 binary)
Found heuristic solution: objective 52.0000000

Root relaxation: objective 1.910000e+02, 529 iterations, 0.03 seconds (0.05 work units)

    Nodes    |    Current Node    |     Objective Bounds      |     Work
 Expl Unexpl |  Obj  Depth IntInf | Incumbent    BestBd   Gap | It/Node Time

     0     0  191.00000    0   47   52.00000  191.00000   267%     -    0s
H    0     0                      59.0000000  191.00000   224%     -    0s
H    0     0                      70.0000000  191.00000   173%     -    0s
H    0     0                      72.0000000  191.00000   165%     -    0s
H    0     0                      76.0000000  191.00000   151%     -    0s
H    0     0                      79.0000000  191.00000   142%     -    0s
     0     0  191.00000    0   79   79.00000  191.00000   142%     -    0s
H    0     0                      80.0000000  191.00000   139%     -    0s
H    0     0                      82.0000000  191.00000   133%     -    0s
     0     0  191.00000    0   66   82.00000  191.00000   133%     -    0s
     0     0  191.00000    0   40   82.00000  191.00000   133%     -    0s
     0     0  191.00000    0   45   82.00000  191.00000   133%     -    0s
     0     0  191.00000    0   31   82.00000  191.00000   133%     -    0s
H    0     0                      87.0000000  191.00000   120%     -    0s
H    0     0                      89.0000000  191.00000   115%     -    0s
     0     0  191.00000    0   42   89.00000  191.00000   115%     -    0s
     0     0  191.00000    0   31   89.00000  191.00000   115%     -    0s
     0     0  191.00000    0   42   89.00000  191.00000   115%     -    0s
     0     0  191.00000    0   41   89.00000  191.00000   115%     -    0s
     0     0  189.32000    0   40   89.00000  189.32000   113%     -    0s
     0     0  189.32000    0   40   89.00000  189.32000   113%     -    0s
     0     0  185.00000    0   45   89.00000  185.00000   108%     -    0s
     0     0  185.00000    0   44   89.00000  185.00000   108%     -    0s
     0     0  185.00000    0   44   89.00000  185.00000   108%     -    0s
     0     0  185.00000    0   41   89.00000  185.00000   108%     -    0s
     0     0  184.32000    0   41   89.00000  184.32000   107%     -    0s
     0     0  184.32000    0   41   89.00000  184.32000   107%     -    0s
     0     2  184.32000    0   41   89.00000  184.32000   107%     -    0s
H   95    90                      90.0000000  184.32000   105%   113    0s
H 2537  1254                      92.0000000  180.64000  96.3%   111    2s
H 3331  1557                      94.0000000  176.72000  88.0%   121    3s
H 3418  1481                      96.0000000  176.72000  84.1%   120    4s
H 3418  1407                      97.0000000  176.72000  82.2%   120    4s
  3423  1410  100.00000   23  106   97.00000  176.72000  82.2%   120    5s
  8570  1341  102.48000   34   19   97.00000  141.16000  45.5%   134   10s
 16281  2291  112.41333   31   34   97.00000  128.00000  32.0%   148   15s
 23658  2229 infeasible   30        97.00000  120.08000  23.8%   156   20s
 31022  1203 infeasible   32        97.00000  112.60000  16.1%   159   25s

Cutting planes:
  Inf proof: 6

Explored 35349 nodes (5645570 simplex iterations) in 27.29 seconds (62.53 work units)
Thread count was 16 (of 16 available processors)

Solution count 10: 97 96 94 ... 87

Optimal solution found (tolerance 1.00e-04)
Best objective 9.700000000000e+01, best bound 9.700000000000e+01, gap 0.0000%

Wrote result file '/root/bgw/data/results/2026_03_24_14_36_04_set_vm-3-t1_vm-3-t1_s017_g003_max.sol'

